(declare-fun var0 () String)
(assert (RegexIn var0 (RegexConcat (RegexStar (RegexUnion (Str2Reg "jj") (Str2Reg "kkk"))) (RegexConcat (RegexStar (RegexUnion (Str2Reg "hh") (Str2Reg "ii"))) (RegexConcat (RegexUnion (RegexUnion (Str2Reg "d") (Str2Reg "ee")) (RegexUnion (Str2Reg "ff") (Str2Reg "ggg"))) (RegexConcat (RegexPlus (RegexStar (Str2Reg "c"))) (RegexConcat (RegexUnion (RegexStar (Str2Reg "99")) (RegexUnion (Str2Reg "a") (Str2Reg "b"))) (RegexConcat (RegexUnion (RegexUnion (Str2Reg "66") (Str2Reg "777")) (RegexStar (Str2Reg "8"))) (RegexConcat (RegexStar (RegexPlus (Str2Reg "5"))) (RegexConcat (RegexStar (RegexUnion (Str2Reg "33") (Str2Reg "444"))) (RegexConcat (RegexStar (RegexPlus (Str2Reg "22"))) (RegexUnion (RegexStar (Str2Reg "000")) (RegexPlus (Str2Reg "1"))))))))))))))
(assert (RegexIn var0 (RegexConcat (RegexPlus (RegexPlus (Str2Reg "ii"))) (RegexConcat (RegexPlus (RegexUnion (Str2Reg "ggg") (Str2Reg "h"))) (RegexConcat (RegexUnion (RegexStar (Str2Reg "ddd")) (RegexUnion (Str2Reg "eee") (Str2Reg "f"))) (RegexConcat (RegexUnion (RegexStar (Str2Reg "bbb")) (RegexPlus (Str2Reg "ccc"))) (RegexConcat (RegexPlus (RegexPlus (Str2Reg "aaa"))) (RegexConcat (RegexUnion (RegexUnion (Str2Reg "66") (Str2Reg "777")) (RegexUnion (Str2Reg "888") (Str2Reg "999"))) (RegexConcat (RegexUnion (RegexPlus (Str2Reg "4")) (RegexPlus (Str2Reg "55"))) (RegexConcat (RegexPlus (RegexStar (Str2Reg "3"))) (RegexConcat (RegexStar (RegexUnion (Str2Reg "11") (Str2Reg "2"))) (RegexStar (RegexPlus (Str2Reg "00"))))))))))))))
(assert (RegexIn var0 (RegexConcat (RegexStar (RegexUnion (Str2Reg "j") (Str2Reg "k"))) (RegexConcat (RegexUnion (RegexUnion (Str2Reg "ggg") (Str2Reg "hhh")) (RegexStar (Str2Reg "ii"))) (RegexConcat (RegexPlus (RegexPlus (Str2Reg "f"))) (RegexConcat (RegexPlus (RegexPlus (Str2Reg "ee"))) (RegexConcat (RegexUnion (RegexPlus (Str2Reg "c")) (RegexStar (Str2Reg "ddd"))) (RegexConcat (RegexUnion (RegexUnion (Str2Reg "9") (Str2Reg "a")) (RegexStar (Str2Reg "bbb"))) (RegexConcat (RegexStar (RegexUnion (Str2Reg "777") (Str2Reg "888"))) (RegexConcat (RegexUnion (RegexStar (Str2Reg "444")) (RegexUnion (Str2Reg "555") (Str2Reg "6"))) (RegexConcat (RegexStar (RegexStar (Str2Reg "33"))) (RegexUnion (RegexStar (Str2Reg "0")) (RegexUnion (Str2Reg "11") (Str2Reg "22"))))))))))))))
(assert (RegexIn var0 (RegexConcat (RegexUnion (RegexStar (Str2Reg "iii")) (RegexPlus (Str2Reg "jjj"))) (RegexConcat (RegexUnion (RegexUnion (Str2Reg "ee") (Str2Reg "ff")) (RegexUnion (Str2Reg "gg") (Str2Reg "h"))) (RegexConcat (RegexUnion (RegexStar (Str2Reg "ccc")) (RegexStar (Str2Reg "d"))) (RegexConcat (RegexUnion (RegexPlus (Str2Reg "a")) (RegexPlus (Str2Reg "bb"))) (RegexConcat (RegexPlus (RegexStar (Str2Reg "999"))) (RegexConcat (RegexStar (RegexUnion (Str2Reg "77") (Str2Reg "8"))) (RegexConcat (RegexStar (RegexUnion (Str2Reg "55") (Str2Reg "66"))) (RegexConcat (RegexPlus (RegexPlus (Str2Reg "4"))) (RegexConcat (RegexStar (RegexUnion (Str2Reg "222") (Str2Reg "333"))) (RegexPlus (RegexUnion (Str2Reg "000") (Str2Reg "111"))))))))))))))
(assert (RegexIn var0 (RegexConcat (RegexUnion (RegexStar (Str2Reg "kk")) (RegexUnion (Str2Reg "ll") (Str2Reg "mm"))) (RegexConcat (RegexUnion (RegexUnion (Str2Reg "hh") (Str2Reg "i")) (RegexPlus (Str2Reg "j"))) (RegexConcat (RegexUnion (RegexPlus (Str2Reg "fff")) (RegexStar (Str2Reg "gg"))) (RegexConcat (RegexUnion (RegexUnion (Str2Reg "b") (Str2Reg "c")) (RegexUnion (Str2Reg "ddd") (Str2Reg "eee"))) (RegexConcat (RegexUnion (RegexStar (Str2Reg "999")) (RegexStar (Str2Reg "a"))) (RegexConcat (RegexUnion (RegexUnion (Str2Reg "66") (Str2Reg "777")) (RegexPlus (Str2Reg "888"))) (RegexConcat (RegexPlus (RegexUnion (Str2Reg "44") (Str2Reg "55"))) (RegexConcat (RegexPlus (RegexPlus (Str2Reg "3"))) (RegexConcat (RegexUnion (RegexStar (Str2Reg "111")) (RegexStar (Str2Reg "22"))) (RegexPlus (RegexPlus (Str2Reg "00"))))))))))))))
(assert (RegexIn var0 (RegexConcat (RegexUnion (RegexUnion (Str2Reg "iii") (Str2Reg "jj")) (RegexUnion (Str2Reg "kkk") (Str2Reg "l"))) (RegexConcat (RegexStar (RegexUnion (Str2Reg "gg") (Str2Reg "hhh"))) (RegexConcat (RegexUnion (RegexUnion (Str2Reg "d") (Str2Reg "e")) (RegexStar (Str2Reg "ff"))) (RegexConcat (RegexUnion (RegexUnion (Str2Reg "aaa") (Str2Reg "bb")) (RegexPlus (Str2Reg "c"))) (RegexConcat (RegexPlus (RegexPlus (Str2Reg "9"))) (RegexConcat (RegexStar (RegexUnion (Str2Reg "7") (Str2Reg "88"))) (RegexConcat (RegexPlus (RegexPlus (Str2Reg "66"))) (RegexConcat (RegexUnion (RegexStar (Str2Reg "3")) (RegexUnion (Str2Reg "4") (Str2Reg "555"))) (RegexConcat (RegexPlus (RegexUnion (Str2Reg "1") (Str2Reg "22"))) (RegexStar (RegexStar (Str2Reg "00"))))))))))))))
(assert (RegexIn var0 (RegexConcat (RegexUnion (RegexPlus (Str2Reg "lll")) (RegexUnion (Str2Reg "m") (Str2Reg "nn"))) (RegexConcat (RegexUnion (RegexUnion (Str2Reg "iii") (Str2Reg "jjj")) (RegexStar (Str2Reg "k"))) (RegexConcat (RegexStar (RegexPlus (Str2Reg "hhh"))) (RegexConcat (RegexPlus (RegexPlus (Str2Reg "g"))) (RegexConcat (RegexUnion (RegexUnion (Str2Reg "ddd") (Str2Reg "eee")) (RegexPlus (Str2Reg "ff"))) (RegexConcat (RegexStar (RegexUnion (Str2Reg "bbb") (Str2Reg "ccc"))) (RegexConcat (RegexStar (RegexPlus (Str2Reg "aaa"))) (RegexConcat (RegexUnion (RegexUnion (Str2Reg "6") (Str2Reg "77")) (RegexUnion (Str2Reg "888") (Str2Reg "9"))) (RegexConcat (RegexUnion (RegexPlus (Str2Reg "333")) (RegexUnion (Str2Reg "444") (Str2Reg "555"))) (RegexUnion (RegexUnion (Str2Reg "000") (Str2Reg "111")) (RegexPlus (Str2Reg "222"))))))))))))))
(assert (RegexIn var0 (RegexConcat (RegexStar (RegexStar (Str2Reg "jj"))) (RegexConcat (RegexUnion (RegexStar (Str2Reg "gg")) (RegexUnion (Str2Reg "hhh") (Str2Reg "i"))) (RegexConcat (RegexUnion (RegexUnion (Str2Reg "d") (Str2Reg "eee")) (RegexPlus (Str2Reg "ff"))) (RegexConcat (RegexPlus (RegexStar (Str2Reg "cc"))) (RegexConcat (RegexPlus (RegexUnion (Str2Reg "a") (Str2Reg "b"))) (RegexConcat (RegexStar (RegexStar (Str2Reg "99"))) (RegexConcat (RegexStar (RegexStar (Str2Reg "8"))) (RegexConcat (RegexUnion (RegexUnion (Str2Reg "55") (Str2Reg "666")) (RegexPlus (Str2Reg "7"))) (RegexConcat (RegexUnion (RegexUnion (Str2Reg "22") (Str2Reg "33")) (RegexPlus (Str2Reg "444"))) (RegexStar (RegexUnion (Str2Reg "0") (Str2Reg "11"))))))))))))))
(assert (RegexIn var0 (RegexConcat (RegexUnion (RegexUnion (Str2Reg "ee") (Str2Reg "f")) (RegexUnion (Str2Reg "ggg") (Str2Reg "hh"))) (RegexConcat (RegexPlus (RegexPlus (Str2Reg "dd"))) (RegexConcat (RegexUnion (RegexUnion (Str2Reg "aa") (Str2Reg "bb")) (RegexPlus (Str2Reg "cc"))) (RegexConcat (RegexStar (RegexStar (Str2Reg "99"))) (RegexConcat (RegexStar (RegexPlus (Str2Reg "8"))) (RegexConcat (RegexStar (RegexUnion (Str2Reg "6") (Str2Reg "777"))) (RegexConcat (RegexPlus (RegexStar (Str2Reg "5"))) (RegexConcat (RegexStar (RegexStar (Str2Reg "44"))) (RegexConcat (RegexUnion (RegexStar (Str2Reg "222")) (RegexPlus (Str2Reg "333"))) (RegexUnion (RegexPlus (Str2Reg "000")) (RegexStar (Str2Reg "111"))))))))))))))
(assert (RegexIn var0 (RegexConcat (RegexPlus (RegexPlus (Str2Reg "kkk"))) (RegexConcat (RegexStar (RegexStar (Str2Reg "jjj"))) (RegexConcat (RegexUnion (RegexUnion (Str2Reg "fff") (Str2Reg "ggg")) (RegexUnion (Str2Reg "hhh") (Str2Reg "i"))) (RegexConcat (RegexUnion (RegexStar (Str2Reg "ddd")) (RegexStar (Str2Reg "ee"))) (RegexConcat (RegexUnion (RegexPlus (Str2Reg "aa")) (RegexUnion (Str2Reg "bbb") (Str2Reg "ccc"))) (RegexConcat (RegexUnion (RegexPlus (Str2Reg "888")) (RegexPlus (Str2Reg "99"))) (RegexConcat (RegexUnion (RegexPlus (Str2Reg "66")) (RegexPlus (Str2Reg "77"))) (RegexConcat (RegexPlus (RegexUnion (Str2Reg "44") (Str2Reg "5"))) (RegexConcat (RegexUnion (RegexStar (Str2Reg "11")) (RegexUnion (Str2Reg "2") (Str2Reg "333"))) (RegexPlus (RegexPlus (Str2Reg "00"))))))))))))))
(assert (RegexIn var0 (RegexConcat (RegexPlus (RegexUnion (Str2Reg "hhh") (Str2Reg "ii"))) (RegexConcat (RegexPlus (RegexUnion (Str2Reg "ff") (Str2Reg "g"))) (RegexConcat (RegexUnion (RegexStar (Str2Reg "ddd")) (RegexStar (Str2Reg "ee"))) (RegexConcat (RegexUnion (RegexUnion (Str2Reg "aaa") (Str2Reg "b")) (RegexPlus (Str2Reg "cc"))) (RegexConcat (RegexStar (RegexStar (Str2Reg "999"))) (RegexConcat (RegexStar (RegexUnion (Str2Reg "7") (Str2Reg "88"))) (RegexConcat (RegexPlus (RegexUnion (Str2Reg "5") (Str2Reg "666"))) (RegexConcat (RegexPlus (RegexUnion (Str2Reg "3") (Str2Reg "4"))) (RegexConcat (RegexStar (RegexStar (Str2Reg "2"))) (RegexUnion (RegexPlus (Str2Reg "0")) (RegexStar (Str2Reg "1"))))))))))))))
(assert (RegexIn var0 (RegexConcat (RegexPlus (RegexStar (Str2Reg "h"))) (RegexConcat (RegexUnion (RegexUnion (Str2Reg "d") (Str2Reg "eee")) (RegexUnion (Str2Reg "fff") (Str2Reg "ggg"))) (RegexConcat (RegexUnion (RegexStar (Str2Reg "bb")) (RegexStar (Str2Reg "ccc"))) (RegexConcat (RegexUnion (RegexPlus (Str2Reg "999")) (RegexPlus (Str2Reg "aa"))) (RegexConcat (RegexStar (RegexStar (Str2Reg "888"))) (RegexConcat (RegexUnion (RegexPlus (Str2Reg "66")) (RegexStar (Str2Reg "77"))) (RegexConcat (RegexStar (RegexPlus (Str2Reg "55"))) (RegexConcat (RegexPlus (RegexStar (Str2Reg "444"))) (RegexConcat (RegexUnion (RegexPlus (Str2Reg "111")) (RegexUnion (Str2Reg "22") (Str2Reg "33"))) (RegexPlus (RegexPlus (Str2Reg "0"))))))))))))))
(assert (RegexIn var0 (RegexConcat (RegexStar (RegexPlus (Str2Reg "ii"))) (RegexConcat (RegexPlus (RegexUnion (Str2Reg "ggg") (Str2Reg "hhh"))) (RegexConcat (RegexStar (RegexUnion (Str2Reg "e") (Str2Reg "ff"))) (RegexConcat (RegexUnion (RegexUnion (Str2Reg "bb") (Str2Reg "c")) (RegexStar (Str2Reg "d"))) (RegexConcat (RegexUnion (RegexStar (Str2Reg "999")) (RegexPlus (Str2Reg "aaa"))) (RegexConcat (RegexPlus (RegexUnion (Str2Reg "7") (Str2Reg "8"))) (RegexConcat (RegexStar (RegexStar (Str2Reg "666"))) (RegexConcat (RegexPlus (RegexUnion (Str2Reg "44") (Str2Reg "5"))) (RegexConcat (RegexUnion (RegexUnion (Str2Reg "111") (Str2Reg "22")) (RegexPlus (Str2Reg "333"))) (RegexPlus (RegexPlus (Str2Reg "0"))))))))))))))
(assert (RegexIn var0 (RegexConcat (RegexUnion (RegexPlus (Str2Reg "gg")) (RegexPlus (Str2Reg "hhh"))) (RegexConcat (RegexUnion (RegexPlus (Str2Reg "ee")) (RegexStar (Str2Reg "fff"))) (RegexConcat (RegexPlus (RegexStar (Str2Reg "ddd"))) (RegexConcat (RegexPlus (RegexPlus (Str2Reg "c"))) (RegexConcat (RegexUnion (RegexPlus (Str2Reg "999")) (RegexUnion (Str2Reg "a") (Str2Reg "b"))) (RegexConcat (RegexStar (RegexStar (Str2Reg "8"))) (RegexConcat (RegexPlus (RegexUnion (Str2Reg "66") (Str2Reg "777"))) (RegexConcat (RegexPlus (RegexUnion (Str2Reg "444") (Str2Reg "555"))) (RegexConcat (RegexStar (RegexPlus (Str2Reg "33"))) (RegexUnion (RegexUnion (Str2Reg "000") (Str2Reg "111")) (RegexStar (Str2Reg "2"))))))))))))))
(assert (RegexIn var0 (RegexConcat (RegexPlus (RegexPlus (Str2Reg "g"))) (RegexConcat (RegexPlus (RegexUnion (Str2Reg "eee") (Str2Reg "f"))) (RegexConcat (RegexPlus (RegexStar (Str2Reg "dd"))) (RegexConcat (RegexStar (RegexUnion (Str2Reg "bb") (Str2Reg "cc"))) (RegexConcat (RegexPlus (RegexPlus (Str2Reg "aa"))) (RegexConcat (RegexUnion (RegexPlus (Str2Reg "88")) (RegexStar (Str2Reg "999"))) (RegexConcat (RegexPlus (RegexUnion (Str2Reg "6") (Str2Reg "777"))) (RegexConcat (RegexPlus (RegexUnion (Str2Reg "44") (Str2Reg "55"))) (RegexConcat (RegexStar (RegexUnion (Str2Reg "22") (Str2Reg "3"))) (RegexPlus (RegexUnion (Str2Reg "000") (Str2Reg "1"))))))))))))))
(assert (RegexIn var0 (RegexConcat (RegexUnion (RegexStar (Str2Reg "fff")) (RegexUnion (Str2Reg "g") (Str2Reg "hh"))) (RegexConcat (RegexPlus (RegexPlus (Str2Reg "e"))) (RegexConcat (RegexUnion (RegexStar (Str2Reg "b")) (RegexUnion (Str2Reg "c") (Str2Reg "ddd"))) (RegexConcat (RegexUnion (RegexStar (Str2Reg "99")) (RegexStar (Str2Reg "aa"))) (RegexConcat (RegexPlus (RegexUnion (Str2Reg "7") (Str2Reg "88"))) (RegexConcat (RegexStar (RegexUnion (Str2Reg "5") (Str2Reg "66"))) (RegexConcat (RegexStar (RegexStar (Str2Reg "4"))) (RegexConcat (RegexStar (RegexStar (Str2Reg "33"))) (RegexConcat (RegexPlus (RegexUnion (Str2Reg "11") (Str2Reg "2"))) (RegexPlus (RegexStar (Str2Reg "0"))))))))))))))
(assert (RegexIn var0 (RegexConcat (RegexPlus (RegexStar (Str2Reg "j"))) (RegexConcat (RegexUnion (RegexUnion (Str2Reg "fff") (Str2Reg "ggg")) (RegexUnion (Str2Reg "h") (Str2Reg "iii"))) (RegexConcat (RegexPlus (RegexPlus (Str2Reg "eee"))) (RegexConcat (RegexPlus (RegexStar (Str2Reg "ddd"))) (RegexConcat (RegexUnion (RegexStar (Str2Reg "b")) (RegexPlus (Str2Reg "c"))) (RegexConcat (RegexStar (RegexUnion (Str2Reg "99") (Str2Reg "aaa"))) (RegexConcat (RegexUnion (RegexPlus (Str2Reg "777")) (RegexStar (Str2Reg "88"))) (RegexConcat (RegexUnion (RegexPlus (Str2Reg "444")) (RegexUnion (Str2Reg "55") (Str2Reg "66"))) (RegexConcat (RegexUnion (RegexUnion (Str2Reg "11") (Str2Reg "222")) (RegexPlus (Str2Reg "33"))) (RegexPlus (RegexPlus (Str2Reg "00"))))))))))))))
(assert (RegexIn var0 (RegexConcat (RegexPlus (RegexStar (Str2Reg "h"))) (RegexConcat (RegexUnion (RegexUnion (Str2Reg "ee") (Str2Reg "f")) (RegexStar (Str2Reg "ggg"))) (RegexConcat (RegexStar (RegexStar (Str2Reg "ddd"))) (RegexConcat (RegexUnion (RegexUnion (Str2Reg "aa") (Str2Reg "b")) (RegexStar (Str2Reg "cc"))) (RegexConcat (RegexStar (RegexUnion (Str2Reg "888") (Str2Reg "99"))) (RegexConcat (RegexStar (RegexUnion (Str2Reg "66") (Str2Reg "777"))) (RegexConcat (RegexStar (RegexStar (Str2Reg "5"))) (RegexConcat (RegexPlus (RegexStar (Str2Reg "444"))) (RegexConcat (RegexStar (RegexUnion (Str2Reg "22") (Str2Reg "333"))) (RegexUnion (RegexPlus (Str2Reg "00")) (RegexPlus (Str2Reg "11"))))))))))))))
(assert (RegexIn var0 (RegexConcat (RegexStar (RegexPlus (Str2Reg "d"))) (RegexConcat (RegexStar (RegexPlus (Str2Reg "cc"))) (RegexConcat (RegexUnion (RegexPlus (Str2Reg "99")) (RegexUnion (Str2Reg "aaa") (Str2Reg "b"))) (RegexConcat (RegexStar (RegexUnion (Str2Reg "77") (Str2Reg "888"))) (RegexConcat (RegexStar (RegexStar (Str2Reg "666"))) (RegexConcat (RegexPlus (RegexUnion (Str2Reg "44") (Str2Reg "55"))) (RegexConcat (RegexPlus (RegexPlus (Str2Reg "333"))) (RegexConcat (RegexPlus (RegexPlus (Str2Reg "22"))) (RegexConcat (RegexStar (RegexPlus (Str2Reg "1"))) (RegexStar (RegexPlus (Str2Reg "000"))))))))))))))
(check-sat)